g3 0 1 0	# problem d6n6R3R6d05d1
 6 8 1 0 3	# vars, constraints, objectives, ranges, eqns
 4 1	# nonlinear constraints, objectives
 0 0	# network constraints: nonlinear, linear
 6 6 6	# nonlinear vars in constraints, objectives, both
 0 0 0 1	# linear network variables; functions; arith, flags
 0 0 0 0 0	# discrete variables: binary, integer, nonlinear (b,c,o)
 48 6	# nonzeros in Jacobian, gradients
 0 0	# max name lengths: constraints, variables
 0 0 0 0 0	# common exprs: b,c,o,c1,o1
b
0 0.43 2.39
0 0.47 2.79
0 0.56 2.17
0 0.69 2.23
0 0.44 2.45
0 0.69 2.94
r
2 215.951
2 588.845
2 1936.17
2 6015.56
4 40.293
4 53.659
4 35.115
2 16.424
C0
o54
11
o2
o2
n7.8
v0
v0
o2
o2
n7.07
v0
v2
o2
o2
n7.88
v0
v4
o2
o2
n2.16
v0
v5
o2
o2
n4.29
v1
v1
o2
o2
n7.45
v1
v5
o2
o2
n7.45
v2
v2
o2
o2
n4.27
v2
v4
o2
o2
n8.02
v3
v5
o2
o2
n6.32
v4
v4
o2
o2
n9.26
v5
v5
C1
o54
35
o2
o2
n2.47
v0
v0
o2
o2
n2.46
v0
v2
o16
o2
o2
n8.52
v0
v4
o16
o2
o2
n2.95
v0
v5
o2
o2
n8.67
v1
v1
o2
o2
n3.71
v1
v5
o2
o2
n8.76
v2
v2
o2
o2
n7.29
v2
v4
o2
o2
n0.67
v3
v5
o2
o2
n1.98
v4
v4
o2
o2
n0.74
v5
v5
o2
o2
o2
n9.92
v0
v0
v0
o2
o2
o2
n5.1
v0
v0
v1
o2
o2
o2
n7.95
v0
v0
v5
o2
o2
o2
n9.85
v0
v1
v1
o2
o2
o2
n1.55
v0
v1
v3
o2
o2
o2
n8.83
v0
v2
v2
o2
o2
o2
n7.08
v0
v2
v5
o2
o2
o2
n6.75
v0
v4
v4
o2
o2
o2
n2.83
v1
v1
v2
o16
o2
o2
o2
n0.61
v1
v1
v3
o2
o2
o2
n3.97
v1
v1
v5
o2
o2
o2
n7.09
v1
v2
v2
o2
o2
o2
n1.89
v1
v3
v3
o2
o2
o2
n8.86
v1
v3
v4
o2
o2
o2
n3.08
v1
v3
v5
o2
o2
o2
n7.49
v2
v2
v2
o2
o2
o2
n8.08
v2
v3
v3
o2
o2
o2
n5.84
v2
v3
v4
o2
o2
o2
n5.58
v2
v4
v4
o2
o2
o2
n7.77
v3
v3
v3
o2
o2
o2
n2.09
v3
v4
v4
o2
o2
o2
n7.93
v3
v5
v5
o2
o2
o2
n2.57
v4
v5
v5
o2
o2
o2
n9.43
v5
v5
v5
C2
o54
106
o16
o2
o2
n6.68
v0
v0
o2
o2
n5.88
v0
v2
o2
o2
n2.89
v0
v4
o2
o2
n3.61
v0
v5
o2
o2
n1.51
v1
v1
o2
o2
n5.83
v1
v5
o2
o2
n2.08
v2
v2
o2
o2
n5.58
v2
v4
o2
o2
n6.33
v3
v5
o2
o2
n8.2
v4
v4
o2
o2
n0.72
v5
v5
o2
o2
o2
n6.8
v0
v0
v0
o2
o2
o2
n7.99
v0
v0
v1
o2
o2
o2
n8.76
v0
v0
v5
o2
o2
o2
n8.05
v0
v1
v1
o2
o2
o2
n6.01
v0
v1
v3
o2
o2
o2
n3.47
v0
v2
v2
o2
o2
o2
n7.07
v0
v2
v5
o2
o2
o2
n9.91
v0
v4
v4
o2
o2
o2
n3.53
v1
v1
v2
o2
o2
o2
n6.83
v1
v1
v3
o2
o2
o2
n8.72
v1
v1
v5
o16
o2
o2
o2
n8.74
v1
v2
v2
o2
o2
o2
n1.66
v1
v3
v3
o2
o2
o2
n2.34
v1
v3
v4
o2
o2
o2
n3.76
v1
v3
v5
o2
o2
o2
n9.86
v2
v2
v2
o2
o2
o2
n1.3
v2
v3
v3
o2
o2
o2
n3.9
v2
v3
v4
o16
o2
o2
o2
n1.47
v2
v4
v4
o2
o2
o2
n4.04
v3
v3
v3
o2
o2
o2
n4.73
v3
v4
v4
o16
o2
o2
o2
n0.7
v3
v5
v5
o16
o2
o2
o2
n1.32
v4
v5
v5
o2
o2
o2
n6.28
v5
v5
v5
o16
o2
o2
o2
o2
n4.78
v0
v0
v0
v1
o16
o2
o2
o2
o2
n9.18
v0
v0
v0
v4
o2
o2
o2
o2
n0.2
v0
v0
v0
v5
o2
o2
o2
o2
n0.83
v0
v0
v1
v1
o2
o2
o2
o2
n0.14
v0
v0
v1
v5
o2
o2
o2
o2
n1.12
v0
v0
v2
v2
o2
o2
o2
o2
n5.89
v0
v0
v2
v3
o2
o2
o2
o2
n2.5
v0
v0
v2
v4
o2
o2
o2
o2
n6.99
v0
v0
v2
v5
o2
o2
o2
o2
n8.11
v0
v0
v3
v3
o2
o2
o2
o2
n6.79
v0
v0
v3
v4
o2
o2
o2
o2
n4.19
v0
v0
v3
v5
o2
o2
o2
o2
n6.84
v0
v0
v4
v5
o2
o2
o2
o2
n2.18
v0
v0
v5
v5
o2
o2
o2
o2
n7.92
v0
v1
v1
v1
o2
o2
o2
o2
n0.69
v0
v1
v1
v2
o2
o2
o2
o2
n0.61
v0
v1
v1
v4
o2
o2
o2
o2
n2.76
v0
v1
v1
v5
o16
o2
o2
o2
o2
n3.08
v0
v1
v2
v2
o2
o2
o2
o2
n8.69
v0
v1
v2
v4
o16
o2
o2
o2
o2
n9.01
v0
v1
v2
v5
o2
o2
o2
o2
n9.77
v0
v1
v3
v3
o2
o2
o2
o2
n3.41
v0
v1
v3
v4
o16
o2
o2
o2
o2
n3.11
v0
v1
v4
v4
o2
o2
o2
o2
n9.16
v0
v1
v5
v5
o2
o2
o2
o2
n3.11
v0
v2
v2
v2
o2
o2
o2
o2
n2.07
v0
v2
v2
v3
o2
o2
o2
o2
n9.61
v0
v2
v2
v4
o2
o2
o2
o2
n7.37
v0
v2
v2
v5
o2
o2
o2
o2
n8.29
v0
v2
v3
v3
o2
o2
o2
o2
n5.22
v0
v2
v4
v5
o2
o2
o2
o2
n3.39
v0
v3
v3
v3
o2
o2
o2
o2
n8.32
v0
v3
v3
v4
o2
o2
o2
o2
n8.32
v0
v3
v4
v4
o2
o2
o2
o2
n9.24
v0
v3
v4
v5
o2
o2
o2
o2
n4.22
v0
v3
v5
v5
o2
o2
o2
o2
n0.36
v0
v4
v5
v5
o2
o2
o2
o2
n1.94
v0
v5
v5
v5
o2
o2
o2
o2
n4.23
v1
v1
v1
v1
o2
o2
o2
o2
n7.74
v1
v1
v1
v3
o2
o2
o2
o2
n7.13
v1
v1
v2
v2
o2
o2
o2
o2
n7.95
v1
v2
v2
v4
o2
o2
o2
o2
n3.72
v1
v2
v3
v3
o2
o2
o2
o2
n2.99
v1
v2
v3
v4
o2
o2
o2
o2
n5.43
v1
v2
v4
v5
o2
o2
o2
o2
n5.95
v1
v2
v5
v5
o16
o2
o2
o2
o2
n0.66
v1
v3
v3
v3
o2
o2
o2
o2
n6.21
v1
v3
v4
v4
o2
o2
o2
o2
n9.28
v1
v4
v4
v4
o2
o2
o2
o2
n3.21
v1
v4
v4
v5
o2
o2
o2
o2
n9.61
v1
v4
v5
v5
o2
o2
o2
o2
n0.87
v2
v2
v2
v5
o2
o2
o2
o2
n0.31
v2
v2
v3
v3
o2
o2
o2
o2
n7.84
v2
v2
v3
v4
o2
o2
o2
o2
n5.28
v2
v2
v4
v4
o2
o2
o2
o2
n3.97
v2
v2
v5
v5
o2
o2
o2
o2
n4.32
v2
v3
v3
v3
o16
o2
o2
o2
o2
n8.23
v2
v3
v3
v4
o2
o2
o2
o2
n7.2
v2
v3
v3
v5
o16
o2
o2
o2
o2
n8.55
v2
v3
v4
v4
o2
o2
o2
o2
n4.19
v2
v3
v4
v5
o2
o2
o2
o2
n8.67
v2
v3
v5
v5
o2
o2
o2
o2
n0.71
v2
v4
v4
v4
o2
o2
o2
o2
n2.52
v3
v3
v3
v3
o2
o2
o2
o2
n8.93
v3
v3
v4
v4
o2
o2
o2
o2
n1.3
v3
v3
v4
v5
o2
o2
o2
o2
n4.21
v3
v4
v4
v4
o2
o2
o2
o2
n3.67
v3
v4
v4
v5
o2
o2
o2
o2
n9.06
v3
v4
v5
v5
o2
o2
o2
o2
n4.27
v3
v5
v5
v5
o2
o2
o2
o2
n2.6
v4
v4
v5
v5
C3
o54
223
o2
o2
n6.51
v0
v0
o2
o2
n0.94
v0
v2
o2
o2
n7.27
v0
v4
o2
o2
n6.76
v0
v5
o2
o2
n3.05
v1
v1
o2
o2
n2.09
v1
v5
o2
o2
n9.2
v2
v2
o2
o2
n0.88
v2
v4
o2
o2
n4.55
v3
v5
o2
o2
n1.26
v4
v4
o2
o2
n9.47
v5
v5
o16
o2
o2
o2
n0.25
v0
v0
v0
o2
o2
o2
n0.36
v0
v0
v1
o2
o2
o2
n6.87
v0
v0
v5
o2
o2
o2
n1.02
v0
v1
v1
o16
o2
o2
o2
n6.78
v0
v1
v3
o2
o2
o2
n6.09
v0
v2
v2
o2
o2
o2
n5.95
v0
v2
v5
o2
o2
o2
n6.97
v0
v4
v4
o2
o2
o2
n6.33
v1
v1
v2
o2
o2
o2
n5.48
v1
v1
v3
o2
o2
o2
n1.38
v1
v1
v5
o2
o2
o2
n5.61
v1
v2
v2
o2
o2
o2
n4.08
v1
v3
v3
o2
o2
o2
n8.6
v1
v3
v4
o2
o2
o2
n5.41
v1
v3
v5
o2
o2
o2
n1.76
v2
v2
v2
o2
o2
o2
n6.1
v2
v3
v3
o16
o2
o2
o2
n6.25
v2
v3
v4
o16
o2
o2
o2
n9.31
v2
v4
v4
o2
o2
o2
n4.23
v3
v3
v3
o2
o2
o2
n7.25
v3
v4
v4
o2
o2
o2
n0.6
v3
v5
v5
o2
o2
o2
n9.41
v4
v5
v5
o2
o2
o2
n9.68
v5
v5
v5
o2
o2
o2
o2
n5.26
v0
v0
v0
v1
o2
o2
o2
o2
n2.16
v0
v0
v0
v4
o2
o2
o2
o2
n9.28
v0
v0
v0
v5
o2
o2
o2
o2
n2.61
v0
v0
v1
v1
o2
o2
o2
o2
n1.05
v0
v0
v1
v5
o2
o2
o2
o2
n2.88
v0
v0
v2
v2
o2
o2
o2
o2
n8.25
v0
v0
v2
v3
o2
o2
o2
o2
n1.67
v0
v0
v2
v4
o2
o2
o2
o2
n5.39
v0
v0
v2
v5
o2
o2
o2
o2
n5.63
v0
v0
v3
v3
o2
o2
o2
o2
n6.1
v0
v0
v3
v4
o2
o2
o2
o2
n2.21
v0
v0
v3
v5
o2
o2
o2
o2
n1.71
v0
v0
v4
v5
o2
o2
o2
o2
n9.79
v0
v0
v5
v5
o2
o2
o2
o2
n4.06
v0
v1
v1
v1
o2
o2
o2
o2
n5.03
v0
v1
v1
v2
o2
o2
o2
o2
n5.22
v0
v1
v1
v4
o2
o2
o2
o2
n3.22
v0
v1
v1
v5
o2
o2
o2
o2
n2.03
v0
v1
v2
v2
o2
o2
o2
o2
n1.47
v0
v1
v2
v4
o16
o2
o2
o2
o2
n8.24
v0
v1
v2
v5
o2
o2
o2
o2
n0.43
v0
v1
v3
v3
o2
o2
o2
o2
n2.05
v0
v1
v3
v4
o2
o2
o2
o2
n4.64
v0
v1
v4
v4
o2
o2
o2
o2
n1.84
v0
v1
v5
v5
o2
o2
o2
o2
n6.93
v0
v2
v2
v2
o2
o2
o2
o2
n8.02
v0
v2
v2
v3
o2
o2
o2
o2
n7.03
v0
v2
v2
v4
o2
o2
o2
o2
n3.64
v0
v2
v2
v5
o2
o2
o2
o2
n9.96
v0
v2
v3
v3
o2
o2
o2
o2
n1.71
v0
v2
v4
v5
o2
o2
o2
o2
n4.23
v0
v3
v3
v3
o2
o2
o2
o2
n1.97
v0
v3
v3
v4
o2
o2
o2
o2
n5.38
v0
v3
v4
v4
o2
o2
o2
o2
n4.95
v0
v3
v4
v5
o2
o2
o2
o2
n5.02
v0
v3
v5
v5
o2
o2
o2
o2
n6.17
v0
v4
v5
v5
o2
o2
o2
o2
n0.82
v0
v5
v5
v5
o2
o2
o2
o2
n8.13
v1
v1
v1
v1
o2
o2
o2
o2
n7.63
v1
v1
v1
v3
o2
o2
o2
o2
n3.21
v1
v1
v2
v2
o16
o2
o2
o2
o2
n5.13
v1
v2
v2
v4
o2
o2
o2
o2
n4.91
v1
v2
v3
v3
o2
o2
o2
o2
n2.29
v1
v2
v3
v4
o2
o2
o2
o2
n0.58
v1
v2
v4
v5
o2
o2
o2
o2
n3.99
v1
v2
v5
v5
o2
o2
o2
o2
n3.21
v1
v3
v3
v3
o2
o2
o2
o2
n0.02
v1
v3
v4
v4
o2
o2
o2
o2
n5.31
v1
v4
v4
v4
o2
o2
o2
o2
n1.89
v1
v4
v4
v5
o2
o2
o2
o2
n2.42
v1
v4
v5
v5
o16
o2
o2
o2
o2
n7.67
v2
v2
v2
v5
o2
o2
o2
o2
n9.39
v2
v2
v3
v3
o2
o2
o2
o2
n0.23
v2
v2
v3
v4
o2
o2
o2
o2
n6.9
v2
v2
v4
v4
o16
o2
o2
o2
o2
n9.18
v2
v2
v5
v5
o2
o2
o2
o2
n1.36
v2
v3
v3
v3
o2
o2
o2
o2
n1.78
v2
v3
v3
v4
o2
o2
o2
o2
n5.69
v2
v3
v3
v5
o2
o2
o2
o2
n3.18
v2
v3
v4
v4
o2
o2
o2
o2
n4.12
v2
v3
v4
v5
o2
o2
o2
o2
n1.33
v2
v3
v5
v5
o2
o2
o2
o2
n8.49
v2
v4
v4
v4
o2
o2
o2
o2
n6.73
v3
v3
v3
v3
o2
o2
o2
o2
n9.1
v3
v3
v4
v4
o2
o2
o2
o2
n2.58
v3
v3
v4
v5
o2
o2
o2
o2
n7.88
v3
v4
v4
v4
o2
o2
o2
o2
n5.36
v3
v4
v4
v5
o2
o2
o2
o2
n6.55
v3
v4
v5
v5
o2
o2
o2
o2
n1.36
v3
v5
v5
v5
o2
o2
o2
o2
n7.81
v4
v4
v5
v5
o2
o2
o2
o2
o2
n9.39
v0
v0
v0
v0
v1
o2
o2
o2
o2
o2
n2.17
v0
v0
v0
v0
v5
o2
o2
o2
o2
o2
n4.99
v0
v0
v0
v1
v1
o2
o2
o2
o2
o2
n8.33
v0
v0
v0
v1
v5
o2
o2
o2
o2
o2
n6.44
v0
v0
v0
v2
v3
o16
o2
o2
o2
o2
o2
n9.95
v0
v0
v0
v3
v3
o2
o2
o2
o2
o2
n7.95
v0
v0
v0
v3
v4
o2
o2
o2
o2
o2
n6.53
v0
v0
v0
v3
v5
o2
o2
o2
o2
o2
n0.23
v0
v0
v0
v5
v5
o2
o2
o2
o2
o2
n1.29
v0
v0
v1
v1
v2
o2
o2
o2
o2
o2
n3.85
v0
v0
v1
v1
v3
o16
o2
o2
o2
o2
o2
n3.83
v0
v0
v1
v1
v4
o2
o2
o2
o2
o2
n5.63
v0
v0
v1
v1
v5
o16
o2
o2
o2
o2
o2
n0.35
v0
v0
v1
v2
v2
o2
o2
o2
o2
o2
n3.5
v0
v0
v1
v3
v3
o2
o2
o2
o2
o2
n9.38
v0
v0
v1
v3
v5
o2
o2
o2
o2
o2
n9.93
v0
v0
v1
v4
v5
o2
o2
o2
o2
o2
n5.61
v0
v0
v2
v2
v2
o2
o2
o2
o2
o2
n9.42
v0
v0
v2
v2
v5
o2
o2
o2
o2
o2
n9.85
v0
v0
v2
v3
v3
o2
o2
o2
o2
o2
n0.37
v0
v0
v2
v3
v4
o16
o2
o2
o2
o2
o2
n7.78
v0
v0
v2
v3
v5
o16
o2
o2
o2
o2
o2
n6.44
v0
v0
v2
v4
v4
o2
o2
o2
o2
o2
n5.39
v0
v0
v2
v4
v5
o2
o2
o2
o2
o2
n7.98
v0
v0
v3
v3
v4
o2
o2
o2
o2
o2
n3.87
v0
v0
v3
v4
v5
o2
o2
o2
o2
o2
n8.63
v0
v0
v4
v5
v5
o2
o2
o2
o2
o2
n1.83
v0
v1
v1
v1
v2
o2
o2
o2
o2
o2
n7.56
v0
v1
v1
v1
v5
o2
o2
o2
o2
o2
n7.54
v0
v1
v1
v2
v2
o2
o2
o2
o2
o2
n2.49
v0
v1
v1
v2
v5
o2
o2
o2
o2
o2
n9.18
v0
v1
v1
v3
v3
o2
o2
o2
o2
o2
n4.01
v0
v1
v1
v3
v5
o2
o2
o2
o2
o2
n5.71
v0
v1
v1
v4
v5
o2
o2
o2
o2
o2
n6.32
v0
v1
v1
v5
v5
o16
o2
o2
o2
o2
o2
n6.36
v0
v1
v2
v4
v5
o2
o2
o2
o2
o2
n4.83
v0
v1
v2
v5
v5
o2
o2
o2
o2
o2
n1.42
v0
v1
v3
v3
v3
o2
o2
o2
o2
o2
n5.91
v0
v1
v3
v4
v5
o2
o2
o2
o2
o2
n2.17
v0
v1
v4
v4
v5
o2
o2
o2
o2
o2
n8.97
v0
v2
v2
v2
v3
o2
o2
o2
o2
o2
n2.89
v0
v2
v2
v2
v5
o16
o2
o2
o2
o2
o2
n6.46
v0
v2
v2
v4
v4
o2
o2
o2
o2
o2
n2.51
v0
v2
v3
v3
v4
o2
o2
o2
o2
o2
n1.79
v0
v2
v3
v4
v4
o2
o2
o2
o2
o2
n8.95
v0
v2
v3
v4
v5
o2
o2
o2
o2
o2
n0.73
v0
v2
v3
v5
v5
o2
o2
o2
o2
o2
n3.86
v0
v2
v4
v5
v5
o2
o2
o2
o2
o2
n6.42
v0
v3
v3
v3
v4
o2
o2
o2
o2
o2
n0.56
v0
v3
v3
v4
v4
o2
o2
o2
o2
o2
n3.46
v0
v3
v3
v5
v5
o2
o2
o2
o2
o2
n3.02
v0
v3
v4
v4
v4
o2
o2
o2
o2
o2
n1.26
v0
v3
v4
v4
v5
o2
o2
o2
o2
o2
n8.7
v0
v3
v4
v5
v5
o2
o2
o2
o2
o2
n2.04
v0
v4
v4
v4
v4
o2
o2
o2
o2
o2
n3.06
v0
v4
v4
v5
v5
o2
o2
o2
o2
o2
n3.77
v0
v4
v5
v5
v5
o2
o2
o2
o2
o2
n8.48
v1
v1
v1
v1
v5
o2
o2
o2
o2
o2
n3.39
v1
v1
v1
v2
v3
o16
o2
o2
o2
o2
o2
n5.57
v1
v1
v1
v2
v4
o2
o2
o2
o2
o2
n0.54
v1
v1
v1
v3
v4
o2
o2
o2
o2
o2
n9.47
v1
v1
v1
v4
v4
o2
o2
o2
o2
o2
n7.19
v1
v1
v1
v4
v5
o2
o2
o2
o2
o2
n9.13
v1
v1
v1
v5
v5
o2
o2
o2
o2
o2
n3.52
v1
v1
v2
v2
v5
o2
o2
o2
o2
o2
n2.3
v1
v1
v2
v3
v3
o2
o2
o2
o2
o2
n5.22
v1
v1
v2
v3
v4
o2
o2
o2
o2
o2
n4.04
v1
v1
v2
v4
v4
o2
o2
o2
o2
o2
n2.64
v1
v1
v2
v4
v5
o2
o2
o2
o2
o2
n1.56
v1
v1
v3
v3
v4
o2
o2
o2
o2
o2
n7.09
v1
v1
v3
v3
v5
o2
o2
o2
o2
o2
n3.28
v1
v1
v3
v4
v4
o2
o2
o2
o2
o2
n4.53
v1
v2
v2
v2
v4
o2
o2
o2
o2
o2
n4.81
v1
v2
v2
v4
v4
o16
o2
o2
o2
o2
o2
n2.08
v1
v2
v2
v4
v5
o2
o2
o2
o2
o2
n9.75
v1
v2
v3
v3
v5
o2
o2
o2
o2
o2
n7.57
v1
v2
v3
v4
v5
o2
o2
o2
o2
o2
n8.03
v1
v2
v3
v5
v5
o2
o2
o2
o2
o2
n7.4
v1
v2
v4
v4
v4
o2
o2
o2
o2
o2
n9.75
v1
v2
v4
v4
v5
o2
o2
o2
o2
o2
n3.22
v1
v3
v3
v3
v3
o2
o2
o2
o2
o2
n7.16
v1
v3
v3
v3
v5
o2
o2
o2
o2
o2
n2.52
v1
v3
v4
v4
v5
o2
o2
o2
o2
o2
n2.71
v1
v3
v5
v5
v5
o2
o2
o2
o2
o2
n3.53
v1
v4
v5
v5
v5
o2
o2
o2
o2
o2
n5.96
v1
v5
v5
v5
v5
o2
o2
o2
o2
o2
n9.86
v2
v2
v2
v2
v4
o2
o2
o2
o2
o2
n7.13
v2
v2
v2
v3
v3
o2
o2
o2
o2
o2
n4.92
v2
v2
v2
v3
v5
o2
o2
o2
o2
o2
n0.13
v2
v2
v2
v4
v4
o2
o2
o2
o2
o2
n1.73
v2
v2
v3
v3
v3
o2
o2
o2
o2
o2
n2.87
v2
v2
v3
v3
v4
o2
o2
o2
o2
o2
n8.22
v2
v2
v3
v4
v4
o2
o2
o2
o2
o2
n7.66
v2
v2
v3
v5
v5
o2
o2
o2
o2
o2
n3.46
v2
v2
v4
v4
v4
o2
o2
o2
o2
o2
n9.56
v2
v2
v4
v4
v5
o2
o2
o2
o2
o2
n5
v2
v2
v4
v5
v5
o2
o2
o2
o2
o2
n5.4
v2
v3
v3
v3
v4
o2
o2
o2
o2
o2
n2.83
v2
v3
v3
v5
v5
o2
o2
o2
o2
o2
n1.37
v2
v3
v4
v4
v4
o2
o2
o2
o2
o2
n0.05
v2
v3
v4
v5
v5
o2
o2
o2
o2
o2
n1.95
v2
v4
v4
v4
v5
o2
o2
o2
o2
o2
n5.73
v2
v4
v5
v5
v5
o2
o2
o2
o2
o2
n7.99
v2
v5
v5
v5
v5
o16
o2
o2
o2
o2
o2
n0.21
v3
v3
v3
v3
v3
o2
o2
o2
o2
o2
n6.75
v3
v3
v3
v3
v4
o2
o2
o2
o2
o2
n8.09
v3
v3
v3
v4
v5
o2
o2
o2
o2
o2
n1.81
v3
v3
v3
v5
v5
o2
o2
o2
o2
o2
n9.39
v3
v3
v5
v5
v5
o16
o2
o2
o2
o2
o2
n5.42
v3
v4
v4
v4
v4
o2
o2
o2
o2
o2
n4.01
v3
v4
v4
v4
v5
o16
o2
o2
o2
o2
o2
n1.44
v3
v5
v5
v5
v5
o2
o2
o2
o2
o2
n9.88
v4
v4
v4
v4
v4
o2
o2
o2
o2
o2
n1.37
v4
v4
v4
v4
v5
o2
o2
o2
o2
o2
n0.2
v4
v4
v4
v5
v5
o2
o2
o2
o2
o2
n1.44
v4
v4
v5
v5
v5
o2
o2
o2
o2
o2
n9.86
v4
v5
v5
v5
v5
C4
n0
C5
n0
C6
n0
C7
n0
O0 0
o54
457
o2
o2
n6.52
v0
v0
o2
o2
n6.24
v0
v2
o2
o2
n2.52
v0
v4
o2
o2
n7.39
v0
v5
o2
o2
n6.42
v1
v1
o2
o2
n8.99
v1
v5
o2
o2
n5.02
v2
v2
o2
o2
n5.57
v2
v4
o2
o2
n9.08
v3
v5
o2
o2
n3.84
v4
v4
o16
o2
o2
n6.73
v5
v5
o2
o2
o2
n5.46
v0
v0
v0
o2
o2
o2
n0.63
v0
v0
v1
o2
o2
o2
n4.38
v0
v0
v5
o16
o2
o2
o2
n6.83
v0
v1
v1
o2
o2
o2
n9.2
v0
v1
v3
o2
o2
o2
n8.16
v0
v2
v2
o2
o2
o2
n5.68
v0
v2
v5
o2
o2
o2
n9.83
v0
v4
v4
o2
o2
o2
n9.92
v1
v1
v2
o2
o2
o2
n0.15
v1
v1
v3
o2
o2
o2
n7.36
v1
v1
v5
o16
o2
o2
o2
n4.16
v1
v2
v2
o2
o2
o2
n8
v1
v3
v3
o2
o2
o2
n3
v1
v3
v4
o2
o2
o2
n3.08
v1
v3
v5
o2
o2
o2
n6.79
v2
v2
v2
o2
o2
o2
n3.64
v2
v3
v3
o2
o2
o2
n3.9
v2
v3
v4
o2
o2
o2
n6.16
v2
v4
v4
o2
o2
o2
n4.29
v3
v3
v3
o2
o2
o2
n5.65
v3
v4
v4
o2
o2
o2
n9.96
v3
v5
v5
o2
o2
o2
n1.51
v4
v5
v5
o2
o2
o2
n0.02
v5
v5
v5
o16
o2
o2
o2
o2
n6.46
v0
v0
v0
v1
o2
o2
o2
o2
n3.52
v0
v0
v0
v4
o2
o2
o2
o2
n3.8
v0
v0
v0
v5
o2
o2
o2
o2
n7.59
v0
v0
v1
v1
o2
o2
o2
o2
n3.44
v0
v0
v1
v5
o2
o2
o2
o2
n3.8
v0
v0
v2
v2
o2
o2
o2
o2
n1.86
v0
v0
v2
v3
o16
o2
o2
o2
o2
n0.62
v0
v0
v2
v4
o2
o2
o2
o2
n6.44
v0
v0
v2
v5
o2
o2
o2
o2
n4.69
v0
v0
v3
v3
o16
o2
o2
o2
o2
n9.36
v0
v0
v3
v4
o2
o2
o2
o2
n8.71
v0
v0
v3
v5
o2
o2
o2
o2
n1.53
v0
v0
v4
v5
o2
o2
o2
o2
n8.9
v0
v0
v5
v5
o2
o2
o2
o2
n1.68
v0
v1
v1
v1
o2
o2
o2
o2
n9.64
v0
v1
v1
v2
o2
o2
o2
o2
n1.1
v0
v1
v1
v4
o16
o2
o2
o2
o2
n8.3
v0
v1
v1
v5
o2
o2
o2
o2
n9.16
v0
v1
v2
v2
o2
o2
o2
o2
n7.89
v0
v1
v2
v4
o2
o2
o2
o2
n0.13
v0
v1
v2
v5
o16
o2
o2
o2
o2
n0.52
v0
v1
v3
v3
o2
o2
o2
o2
n6.43
v0
v1
v3
v4
o2
o2
o2
o2
n9.32
v0
v1
v4
v4
o2
o2
o2
o2
n8.71
v0
v1
v5
v5
o2
o2
o2
o2
n1.78
v0
v2
v2
v2
o2
o2
o2
o2
n8.11
v0
v2
v2
v3
o2
o2
o2
o2
n2.18
v0
v2
v2
v4
o16
o2
o2
o2
o2
n0.85
v0
v2
v2
v5
o2
o2
o2
o2
n6.04
v0
v2
v3
v3
o2
o2
o2
o2
n0.72
v0
v2
v4
v5
o2
o2
o2
o2
n4.33
v0
v3
v3
v3
o2
o2
o2
o2
n9.5
v0
v3
v3
v4
o2
o2
o2
o2
n0.3
v0
v3
v4
v4
o16
o2
o2
o2
o2
n0.85
v0
v3
v4
v5
o2
o2
o2
o2
n6.7
v0
v3
v5
v5
o2
o2
o2
o2
n7.86
v0
v4
v5
v5
o2
o2
o2
o2
n6.24
v0
v5
v5
v5
o2
o2
o2
o2
n9.57
v1
v1
v1
v1
o2
o2
o2
o2
n3.05
v1
v1
v1
v3
o2
o2
o2
o2
n6.9
v1
v1
v2
v2
o2
o2
o2
o2
n8.04
v1
v2
v2
v4
o2
o2
o2
o2
n3.09
v1
v2
v3
v3
o2
o2
o2
o2
n5.89
v1
v2
v3
v4
o2
o2
o2
o2
n9.18
v1
v2
v4
v5
o2
o2
o2
o2
n6.5
v1
v2
v5
v5
o16
o2
o2
o2
o2
n9.68
v1
v3
v3
v3
o2
o2
o2
o2
n8.77
v1
v3
v4
v4
o16
o2
o2
o2
o2
n8.85
v1
v4
v4
v4
o2
o2
o2
o2
n9.42
v1
v4
v4
v5
o2
o2
o2
o2
n2.83
v1
v4
v5
v5
o2
o2
o2
o2
n4.74
v2
v2
v2
v5
o2
o2
o2
o2
n7.96
v2
v2
v3
v3
o2
o2
o2
o2
n8.11
v2
v2
v3
v4
o2
o2
o2
o2
n0.65
v2
v2
v4
v4
o2
o2
o2
o2
n1.02
v2
v2
v5
v5
o2
o2
o2
o2
n8.99
v2
v3
v3
v3
o2
o2
o2
o2
n0.37
v2
v3
v3
v4
o2
o2
o2
o2
n1.57
v2
v3
v3
v5
o16
o2
o2
o2
o2
n0.06
v2
v3
v4
v4
o2
o2
o2
o2
n3.66
v2
v3
v4
v5
o2
o2
o2
o2
n9.47
v2
v3
v5
v5
o2
o2
o2
o2
n6.22
v2
v4
v4
v4
o2
o2
o2
o2
n6.72
v3
v3
v3
v3
o2
o2
o2
o2
n7.94
v3
v3
v4
v4
o2
o2
o2
o2
n9.59
v3
v3
v4
v5
o2
o2
o2
o2
n5.62
v3
v4
v4
v4
o2
o2
o2
o2
n1.75
v3
v4
v4
v5
o2
o2
o2
o2
n3.36
v3
v4
v5
v5
o2
o2
o2
o2
n7.36
v3
v5
v5
v5
o2
o2
o2
o2
n5.58
v4
v4
v5
v5
o2
o2
o2
o2
o2
n1.52
v0
v0
v0
v0
v1
o2
o2
o2
o2
o2
n4.53
v0
v0
v0
v0
v5
o2
o2
o2
o2
o2
n9.76
v0
v0
v0
v1
v1
o2
o2
o2
o2
o2
n7.34
v0
v0
v0
v1
v5
o2
o2
o2
o2
o2
n4.01
v0
v0
v0
v2
v3
o2
o2
o2
o2
o2
n2.97
v0
v0
v0
v3
v3
o2
o2
o2
o2
o2
n8.19
v0
v0
v0
v3
v4
o2
o2
o2
o2
o2
n4.54
v0
v0
v0
v3
v5
o2
o2
o2
o2
v0
v0
v0
v5
v5
o2
o2
o2
o2
o2
n7.09
v0
v0
v1
v1
v2
o2
o2
o2
o2
o2
n8.83
v0
v0
v1
v1
v3
o2
o2
o2
o2
o2
n6.33
v0
v0
v1
v1
v4
o2
o2
o2
o2
o2
n6.59
v0
v0
v1
v1
v5
o2
o2
o2
o2
o2
n8.52
v0
v0
v1
v2
v2
o2
o2
o2
o2
o2
n9.25
v0
v0
v1
v3
v3
o2
o2
o2
o2
o2
n6.84
v0
v0
v1
v3
v5
o2
o2
o2
o2
o2
n1.91
v0
v0
v1
v4
v5
o2
o2
o2
o2
o2
n4.64
v0
v0
v2
v2
v2
o2
o2
o2
o2
o2
n1.25
v0
v0
v2
v2
v5
o16
o2
o2
o2
o2
o2
n0.78
v0
v0
v2
v3
v3
o2
o2
o2
o2
o2
n6.08
v0
v0
v2
v3
v4
o2
o2
o2
o2
o2
n7.37
v0
v0
v2
v3
v5
o2
o2
o2
o2
o2
n9.96
v0
v0
v2
v4
v4
o2
o2
o2
o2
o2
n5.39
v0
v0
v2
v4
v5
o2
o2
o2
o2
o2
n3.47
v0
v0
v3
v3
v4
o2
o2
o2
o2
o2
n8.2
v0
v0
v3
v4
v5
o2
o2
o2
o2
o2
n9.21
v0
v0
v4
v5
v5
o16
o2
o2
o2
o2
o2
n8.61
v0
v1
v1
v1
v2
o2
o2
o2
o2
o2
n7.14
v0
v1
v1
v1
v5
o16
o2
o2
o2
o2
o2
n9.49
v0
v1
v1
v2
v2
o2
o2
o2
o2
o2
n3.12
v0
v1
v1
v2
v5
o2
o2
o2
o2
o2
n3.49
v0
v1
v1
v3
v3
o2
o2
o2
o2
o2
n8.58
v0
v1
v1
v3
v5
o16
o2
o2
o2
o2
o2
n2
v0
v1
v1
v4
v5
o2
o2
o2
o2
o2
n3.93
v0
v1
v1
v5
v5
o2
o2
o2
o2
o2
n8.82
v0
v1
v2
v4
v5
o2
o2
o2
o2
o2
n3.71
v0
v1
v2
v5
v5
o2
o2
o2
o2
o2
n8.69
v0
v1
v3
v3
v3
o2
o2
o2
o2
o2
n6.16
v0
v1
v3
v4
v5
o2
o2
o2
o2
o2
n6.11
v0
v1
v4
v4
v5
o2
o2
o2
o2
o2
n5.08
v0
v2
v2
v2
v3
o2
o2
o2
o2
o2
n4.74
v0
v2
v2
v2
v5
o2
o2
o2
o2
o2
n6.87
v0
v2
v2
v4
v4
o2
o2
o2
o2
o2
n2.67
v0
v2
v3
v3
v4
o2
o2
o2
o2
o2
n0.35
v0
v2
v3
v4
v4
o2
o2
o2
o2
o2
n3.87
v0
v2
v3
v4
v5
o2
o2
o2
o2
o2
n2.37
v0
v2
v3
v5
v5
o2
o2
o2
o2
o2
n1.12
v0
v2
v4
v5
v5
o2
o2
o2
o2
o2
n7.01
v0
v3
v3
v3
v4
o2
o2
o2
o2
o2
n0.85
v0
v3
v3
v4
v4
o2
o2
o2
o2
o2
n0.99
v0
v3
v3
v5
v5
o2
o2
o2
o2
o2
n4.97
v0
v3
v4
v4
v4
o2
o2
o2
o2
o2
n3.39
v0
v3
v4
v4
v5
o2
o2
o2
o2
o2
n0.29
v0
v3
v4
v5
v5
o2
o2
o2
o2
o2
n2.21
v0
v4
v4
v4
v4
o2
o2
o2
o2
o2
n0.58
v0
v4
v4
v5
v5
o16
o2
o2
o2
o2
o2
n5.84
v0
v4
v5
v5
v5
o2
o2
o2
o2
o2
n1.72
v1
v1
v1
v1
v5
o2
o2
o2
o2
o2
n2.01
v1
v1
v1
v2
v3
o2
o2
o2
o2
o2
n5.3
v1
v1
v1
v2
v4
o2
o2
o2
o2
o2
n2.24
v1
v1
v1
v3
v4
o2
o2
o2
o2
o2
n0.81
v1
v1
v1
v4
v4
o16
o2
o2
o2
o2
o2
n4.48
v1
v1
v1
v4
v5
o2
o2
o2
o2
o2
n1.92
v1
v1
v1
v5
v5
o2
o2
o2
o2
o2
n1.73
v1
v1
v2
v2
v5
o2
o2
o2
o2
o2
n6.98
v1
v1
v2
v3
v3
o2
o2
o2
o2
o2
n9.65
v1
v1
v2
v3
v4
o2
o2
o2
o2
o2
n9.29
v1
v1
v2
v4
v4
o2
o2
o2
o2
o2
n0.65
v1
v1
v2
v4
v5
o2
o2
o2
o2
o2
n7.14
v1
v1
v3
v3
v4
o2
o2
o2
o2
o2
n7.62
v1
v1
v3
v3
v5
o2
o2
o2
o2
o2
n9.26
v1
v1
v3
v4
v4
o2
o2
o2
o2
o2
n4.8
v1
v2
v2
v2
v4
o2
o2
o2
o2
o2
n5.73
v1
v2
v2
v4
v4
o2
o2
o2
o2
o2
n8.88
v1
v2
v2
v4
v5
o2
o2
o2
o2
o2
n9.84
v1
v2
v3
v3
v5
o2
o2
o2
o2
o2
n7.9
v1
v2
v3
v4
v5
o2
o2
o2
o2
o2
n1.06
v1
v2
v3
v5
v5
o16
o2
o2
o2
o2
o2
n0.95
v1
v2
v4
v4
v4
o2
o2
o2
o2
o2
n4.61
v1
v2
v4
v4
v5
o2
o2
o2
o2
o2
n6.34
v1
v3
v3
v3
v3
o2
o2
o2
o2
o2
n7.78
v1
v3
v3
v3
v5
o2
o2
o2
o2
o2
n1.19
v1
v3
v4
v4
v5
o16
o2
o2
o2
o2
o2
n8.39
v1
v3
v5
v5
v5
o2
o2
o2
o2
o2
n0.12
v1
v4
v5
v5
v5
o2
o2
o2
o2
o2
n5.72
v1
v5
v5
v5
v5
o2
o2
o2
o2
o2
n5.93
v2
v2
v2
v2
v4
o2
o2
o2
o2
o2
n9.15
v2
v2
v2
v3
v3
o2
o2
o2
o2
o2
n0.1
v2
v2
v2
v3
v5
o2
o2
o2
o2
o2
n4.92
v2
v2
v2
v4
v4
o2
o2
o2
o2
o2
n5.81
v2
v2
v3
v3
v3
o2
o2
o2
o2
o2
n6.18
v2
v2
v3
v3
v4
o2
o2
o2
o2
o2
n1.47
v2
v2
v3
v4
v4
o2
o2
o2
o2
o2
n6.88
v2
v2
v3
v5
v5
o2
o2
o2
o2
o2
n7.39
v2
v2
v4
v4
v4
o2
o2
o2
o2
o2
n4.48
v2
v2
v4
v4
v5
o2
o2
o2
o2
o2
n3.5
v2
v2
v4
v5
v5
o2
o2
o2
o2
o2
n2.16
v2
v3
v3
v3
v4
o2
o2
o2
o2
o2
n0.98
v2
v3
v3
v5
v5
o2
o2
o2
o2
o2
n5.47
v2
v3
v4
v4
v4
o2
o2
o2
o2
o2
n5.46
v2
v3
v4
v5
v5
o2
o2
o2
o2
o2
n4.12
v2
v4
v4
v4
v5
o2
o2
o2
o2
o2
n4.77
v2
v4
v5
v5
v5
o2
o2
o2
o2
o2
n3.85
v2
v5
v5
v5
v5
o2
o2
o2
o2
o2
n8.92
v3
v3
v3
v3
v3
o16
o2
o2
o2
o2
o2
n8.99
v3
v3
v3
v3
v4
o2
o2
o2
o2
o2
n5.18
v3
v3
v3
v4
v5
o2
o2
o2
o2
o2
n0.81
v3
v3
v3
v5
v5
o2
o2
o2
o2
o2
n6.15
v3
v3
v5
v5
v5
o2
o2
o2
o2
o2
n2.13
v3
v4
v4
v4
v4
o2
o2
o2
o2
o2
n3.43
v3
v4
v4
v4
v5
o2
o2
o2
o2
o2
n3.41
v3
v5
v5
v5
v5
o2
o2
o2
o2
o2
n4.92
v4
v4
v4
v4
v4
o2
o2
o2
o2
o2
n0.61
v4
v4
v4
v4
v5
o2
o2
o2
o2
o2
n8.42
v4
v4
v4
v5
v5
o2
o2
o2
o2
o2
n0.27
v4
v4
v5
v5
v5
o2
o2
o2
o2
o2
n9.42
v4
v5
v5
v5
v5
o2
o2
o2
o2
o2
o2
n1.96
v0
v0
v0
v0
v0
v1
o2
o2
o2
o2
o2
o2
n5.83
v0
v0
v0
v0
v0
v3
o2
o2
o2
o2
o2
o2
n3.48
v0
v0
v0
v0
v0
v5
o2
o2
o2
o2
o2
o2
n7.52
v0
v0
v0
v0
v1
v3
o16
o2
o2
o2
o2
o2
o2
n9.21
v0
v0
v0
v0
v1
v4
o2
o2
o2
o2
o2
o2
n3.45
v0
v0
v0
v0
v2
v3
o16
o2
o2
o2
o2
o2
o2
n6.74
v0
v0
v0
v0
v2
v5
o2
o2
o2
o2
o2
o2
n4.21
v0
v0
v0
v0
v3
v4
o2
o2
o2
o2
o2
o2
n2.23
v0
v0
v0
v0
v3
v5
o16
o2
o2
o2
o2
o2
o2
n2.81
v0
v0
v0
v0
v4
v4
o2
o2
o2
o2
o2
o2
n9.8
v0
v0
v0
v0
v5
v5
o16
o2
o2
o2
o2
o2
o2
n1.4
v0
v0
v0
v1
v1
v1
o2
o2
o2
o2
o2
o2
n5.19
v0
v0
v0
v1
v1
v4
o2
o2
o2
o2
o2
o2
n7.01
v0
v0
v0
v1
v2
v4
o2
o2
o2
o2
o2
o2
n9.11
v0
v0
v0
v1
v2
v5
o2
o2
o2
o2
o2
o2
n3.79
v0
v0
v0
v1
v3
v4
o2
o2
o2
o2
o2
o2
n0.43
v0
v0
v0
v1
v4
v4
o2
o2
o2
o2
o2
o2
n4.84
v0
v0
v0
v1
v4
v5
o2
o2
o2
o2
o2
o2
n4.75
v0
v0
v0
v2
v2
v2
o16
o2
o2
o2
o2
o2
o2
n1.21
v0
v0
v0
v2
v2
v3
o2
o2
o2
o2
o2
o2
n8.43
v0
v0
v0
v2
v2
v5
o2
o2
o2
o2
o2
o2
n1.11
v0
v0
v0
v2
v3
v3
o2
o2
o2
o2
o2
o2
n3.57
v0
v0
v0
v2
v3
v4
o2
o2
o2
o2
o2
o2
n6.99
v0
v0
v0
v2
v4
v4
o2
o2
o2
o2
o2
o2
n4.15
v0
v0
v0
v2
v5
v5
o2
o2
o2
o2
o2
o2
n3.28
v0
v0
v0
v3
v3
v4
o16
o2
o2
o2
o2
o2
o2
n8.64
v0
v0
v0
v3
v4
v5
o2
o2
o2
o2
o2
o2
n2.77
v0
v0
v0
v3
v5
v5
o2
o2
o2
o2
o2
o2
n9.52
v0
v0
v0
v4
v4
v4
o2
o2
o2
o2
o2
o2
n4.27
v0
v0
v0
v4
v4
v5
o2
o2
o2
o2
o2
o2
n4.86
v0
v0
v0
v5
v5
v5
o16
o2
o2
o2
o2
o2
o2
n9.44
v0
v0
v1
v1
v1
v2
o2
o2
o2
o2
o2
o2
n2.3
v0
v0
v1
v1
v1
v4
o2
o2
o2
o2
o2
o2
n1.61
v0
v0
v1
v1
v1
v5
o2
o2
o2
o2
o2
o2
n0.92
v0
v0
v1
v1
v2
v3
o2
o2
o2
o2
o2
o2
n4.37
v0
v0
v1
v1
v2
v4
o2
o2
o2
o2
o2
o2
n1.04
v0
v0
v1
v1
v3
v3
o2
o2
o2
o2
o2
o2
n2.75
v0
v0
v1
v1
v3
v4
o2
o2
o2
o2
o2
o2
n7.47
v0
v0
v1
v1
v3
v5
o2
o2
o2
o2
o2
o2
n4.87
v0
v0
v1
v1
v4
v4
o2
o2
o2
o2
o2
o2
n6.42
v0
v0
v1
v2
v2
v4
o16
o2
o2
o2
o2
o2
o2
n6.69
v0
v0
v1
v2
v3
v5
o2
o2
o2
o2
o2
o2
n1.47
v0
v0
v1
v2
v4
v4
o2
o2
o2
o2
o2
o2
n7.95
v0
v0
v1
v2
v4
v5
o16
o2
o2
o2
o2
o2
o2
n8.78
v0
v0
v1
v3
v3
v4
o2
o2
o2
o2
o2
o2
n1.82
v0
v0
v1
v3
v5
v5
o16
o2
o2
o2
o2
o2
o2
n6.95
v0
v0
v1
v4
v4
v5
o2
o2
o2
o2
o2
o2
n6.29
v0
v0
v1
v5
v5
v5
o2
o2
o2
o2
o2
o2
n1.88
v0
v0
v2
v2
v2
v2
o2
o2
o2
o2
o2
o2
n0.01
v0
v0
v2
v2
v2
v4
o2
o2
o2
o2
o2
o2
n1.82
v0
v0
v2
v2
v3
v4
o2
o2
o2
o2
o2
o2
n0.43
v0
v0
v2
v2
v4
v5
o2
o2
o2
o2
o2
o2
n3
v0
v0
v2
v2
v5
v5
o2
o2
o2
o2
o2
o2
n7
v0
v0
v2
v3
v3
v3
o2
o2
o2
o2
o2
o2
n1.13
v0
v0
v2
v3
v4
v5
o2
o2
o2
o2
o2
o2
n7.31
v0
v0
v2
v4
v4
v5
o2
o2
o2
o2
o2
o2
n9.15
v0
v0
v2
v5
v5
v5
o16
o2
o2
o2
o2
o2
o2
n8.95
v0
v0
v3
v3
v3
v3
o2
o2
o2
o2
o2
o2
n6.41
v0
v0
v3
v3
v3
v4
o2
o2
o2
o2
o2
o2
n4.91
v0
v0
v3
v4
v4
v4
o2
o2
o2
o2
o2
o2
n9.69
v0
v0
v3
v4
v5
v5
o2
o2
o2
o2
o2
o2
n5.32
v0
v0
v4
v4
v4
v5
o2
o2
o2
o2
o2
o2
n1.38
v0
v0
v4
v4
v5
v5
o2
o2
o2
o2
o2
o2
n3.32
v0
v0
v5
v5
v5
v5
o2
o2
o2
o2
o2
o2
n5.05
v0
v1
v1
v1
v1
v1
o2
o2
o2
o2
o2
o2
n7.98
v0
v1
v1
v1
v2
v2
o2
o2
o2
o2
o2
o2
n3.84
v0
v1
v1
v1
v2
v3
o2
o2
o2
o2
o2
o2
n1.92
v0
v1
v1
v1
v2
v4
o2
o2
o2
o2
o2
o2
n1.82
v0
v1
v1
v1
v3
v4
o2
o2
o2
o2
o2
o2
n6.56
v0
v1
v1
v1
v3
v5
o2
o2
o2
o2
o2
o2
n3.85
v0
v1
v1
v2
v2
v3
o2
o2
o2
o2
o2
o2
n2.82
v0
v1
v1
v2
v2
v4
o2
o2
o2
o2
o2
o2
n4
v0
v1
v1
v2
v3
v4
o2
o2
o2
o2
o2
o2
n10
v0
v1
v1
v2
v5
v5
o2
o2
o2
o2
o2
o2
n8.12
v0
v1
v1
v3
v3
v3
o2
o2
o2
o2
o2
o2
n0.68
v0
v1
v1
v3
v3
v4
o2
o2
o2
o2
o2
o2
n0.57
v0
v1
v1
v3
v4
v5
o2
o2
o2
o2
o2
o2
n4.5
v0
v1
v1
v3
v5
v5
o2
o2
o2
o2
o2
o2
n0.72
v0
v1
v1
v4
v4
v4
o16
o2
o2
o2
o2
o2
o2
n8.59
v0
v1
v1
v4
v5
v5
o2
o2
o2
o2
o2
o2
n9.26
v0
v1
v2
v2
v2
v3
o2
o2
o2
o2
o2
o2
n7.51
v0
v1
v2
v2
v2
v4
o2
o2
o2
o2
o2
o2
n9.93
v0
v1
v2
v2
v2
v5
o2
o2
o2
o2
o2
o2
n0.37
v0
v1
v2
v2
v4
v4
o2
o2
o2
o2
o2
o2
n6.6
v0
v1
v2
v3
v3
v3
o2
o2
o2
o2
o2
o2
n8.18
v0
v1
v2
v3
v3
v4
o2
o2
o2
o2
o2
o2
n1.46
v0
v1
v2
v3
v4
v5
o2
o2
o2
o2
o2
o2
n9
v0
v1
v2
v4
v4
v4
o2
o2
o2
o2
o2
o2
n4.2
v0
v1
v2
v4
v5
v5
o16
o2
o2
o2
o2
o2
o2
n3.89
v0
v1
v2
v5
v5
v5
o2
o2
o2
o2
o2
o2
n7.84
v0
v1
v3
v3
v3
v3
o2
o2
o2
o2
o2
o2
n1.36
v0
v1
v3
v3
v4
v4
o2
o2
o2
o2
o2
o2
n1.29
v0
v1
v3
v3
v4
v5
o2
o2
o2
o2
o2
o2
n3.15
v0
v1
v3
v4
v4
v4
o2
o2
o2
o2
o2
o2
n4.08
v0
v1
v3
v4
v4
v5
o2
o2
o2
o2
o2
o2
n9.21
v0
v1
v3
v4
v5
v5
o2
o2
o2
o2
o2
o2
n3.52
v0
v1
v4
v4
v4
v4
o16
o2
o2
o2
o2
o2
o2
n4.65
v0
v1
v4
v4
v5
v5
o2
o2
o2
o2
o2
o2
n9.6
v0
v1
v4
v5
v5
v5
o2
o2
o2
o2
o2
o2
n6.43
v0
v2
v2
v2
v2
v4
o2
o2
o2
o2
o2
o2
n7.99
v0
v2
v2
v2
v3
v3
o2
o2
o2
o2
o2
o2
n2.69
v0
v2
v2
v2
v3
v4
o2
o2
o2
o2
o2
o2
n6.37
v0
v2
v2
v2
v3
v5
o2
o2
o2
o2
o2
o2
n2.48
v0
v2
v2
v2
v4
v5
o2
o2
o2
o2
o2
o2
n4.53
v0
v2
v2
v2
v5
v5
o2
o2
o2
o2
o2
o2
n8.7
v0
v2
v2
v3
v3
v5
o2
o2
o2
o2
o2
o2
n3.36
v0
v2
v2
v3
v4
v5
o2
o2
o2
o2
o2
o2
n2.1
v0
v2
v2
v4
v4
v5
o2
o2
o2
o2
o2
o2
n3.27
v0
v2
v2
v4
v5
v5
o16
o2
o2
o2
o2
o2
o2
n9.12
v0
v2
v2
v5
v5
v5
o2
o2
o2
o2
o2
o2
n7.16
v0
v2
v3
v3
v3
v3
o2
o2
o2
o2
o2
o2
n1.35
v0
v2
v3
v3
v3
v5
o2
o2
o2
o2
o2
o2
n8.38
v0
v2
v3
v3
v4
v5
o2
o2
o2
o2
o2
o2
n9.53
v0
v2
v3
v4
v4
v5
o2
o2
o2
o2
o2
o2
n8.93
v0
v2
v3
v4
v5
v5
o2
o2
o2
o2
o2
o2
n9.79
v0
v2
v3
v5
v5
v5
o2
o2
o2
o2
o2
o2
n8.18
v0
v2
v4
v4
v4
v4
o2
o2
o2
o2
o2
o2
n4.98
v0
v2
v4
v4
v5
v5
o2
o2
o2
o2
o2
o2
n7.55
v0
v2
v5
v5
v5
v5
o2
o2
o2
o2
o2
o2
n8.96
v0
v3
v3
v3
v3
v3
o16
o2
o2
o2
o2
o2
o2
n1.34
v0
v3
v3
v3
v5
v5
o2
o2
o2
o2
o2
o2
n6.57
v0
v3
v3
v5
v5
v5
o2
o2
o2
o2
o2
o2
n9.04
v0
v3
v4
v4
v5
v5
o16
o2
o2
o2
o2
o2
o2
n7.13
v0
v3
v5
v5
v5
v5
o2
o2
o2
o2
o2
o2
n9.49
v0
v4
v4
v4
v4
v4
o2
o2
o2
o2
o2
o2
n4.33
v0
v4
v4
v5
v5
v5
o2
o2
o2
o2
o2
o2
n2.2
v0
v4
v5
v5
v5
v5
o2
o2
o2
o2
o2
o2
n0.25
v1
v1
v1
v1
v1
v2
o2
o2
o2
o2
o2
o2
n5.99
v1
v1
v1
v1
v1
v3
o2
o2
o2
o2
o2
o2
n6.33
v1
v1
v1
v1
v1
v4
o2
o2
o2
o2
o2
o2
n0.56
v1
v1
v1
v1
v2
v2
o2
o2
o2
o2
o2
o2
n9.19
v1
v1
v1
v1
v3
v3
o2
o2
o2
o2
o2
o2
n0.95
v1
v1
v1
v1
v3
v5
o2
o2
o2
o2
o2
o2
n3.99
v1
v1
v1
v1
v4
v4
o16
o2
o2
o2
o2
o2
o2
n0.53
v1
v1
v1
v1
v4
v5
o2
o2
o2
o2
o2
o2
n3.22
v1
v1
v1
v2
v2
v2
o2
o2
o2
o2
o2
o2
n2.55
v1
v1
v1
v2
v3
v3
o16
o2
o2
o2
o2
o2
o2
n3.73
v1
v1
v1
v2
v3
v5
o2
o2
o2
o2
o2
o2
n5.79
v1
v1
v1
v3
v3
v4
o2
o2
o2
o2
o2
o2
n9.73
v1
v1
v1
v3
v3
v5
o2
o2
o2
o2
o2
o2
n4.53
v1
v1
v1
v3
v4
v5
o2
o2
o2
o2
o2
o2
n4.77
v1
v1
v1
v3
v5
v5
o2
o2
o2
o2
o2
o2
n8.01
v1
v1
v1
v4
v4
v4
o2
o2
o2
o2
o2
o2
n0.21
v1
v1
v2
v2
v2
v3
o2
o2
o2
o2
o2
o2
n0.04
v1
v1
v2
v2
v2
v4
o2
o2
o2
o2
o2
o2
n3.29
v1
v1
v2
v2
v2
v5
o2
o2
o2
o2
o2
o2
n3.69
v1
v1
v2
v2
v4
v4
o2
o2
o2
o2
o2
o2
n2.46
v1
v1
v2
v2
v4
v5
o2
o2
o2
o2
o2
o2
n1.65
v1
v1
v2
v3
v3
v5
o2
o2
o2
o2
o2
o2
n2.74
v1
v1
v2
v3
v4
v4
o2
o2
o2
o2
o2
o2
n7.39
v1
v1
v2
v3
v4
v5
o16
o2
o2
o2
o2
o2
o2
n9.09
v1
v1
v2
v5
v5
v5
o2
o2
o2
o2
o2
o2
n7.62
v1
v1
v3
v3
v3
v4
o2
o2
o2
o2
o2
o2
n0.44
v1
v1
v3
v3
v3
v5
o2
o2
o2
o2
o2
o2
n1.12
v1
v1
v3
v3
v4
v4
o2
o2
o2
o2
o2
o2
n2.25
v1
v1
v3
v3
v4
v5
o2
o2
o2
o2
o2
o2
n4.48
v1
v1
v3
v3
v5
v5
o2
o2
o2
o2
o2
o2
n0.47
v1
v1
v3
v4
v4
v4
o16
o2
o2
o2
o2
o2
o2
n9.97
v1
v1
v4
v4
v4
v4
o2
o2
o2
o2
o2
o2
n4.58
v1
v1
v4
v4
v4
v5
o2
o2
o2
o2
o2
o2
n5.78
v1
v2
v2
v2
v2
v4
o2
o2
o2
o2
o2
o2
n2.72
v1
v2
v2
v2
v3
v5
o2
o2
o2
o2
o2
o2
n4.09
v1
v2
v2
v2
v4
v4
o2
o2
o2
o2
o2
o2
n6.46
v1
v2
v2
v2
v5
v5
o2
o2
o2
o2
o2
o2
n7.16
v1
v2
v2
v3
v3
v3
o2
o2
o2
o2
o2
o2
n8.29
v1
v2
v2
v3
v3
v4
o2
o2
o2
o2
o2
o2
n6.8
v1
v2
v2
v3
v4
v5
o2
o2
o2
o2
o2
o2
n9.46
v1
v2
v2
v3
v5
v5
o2
o2
o2
o2
o2
o2
n7.61
v1
v2
v2
v4
v4
v4
o2
o2
o2
o2
o2
o2
n1.05
v1
v2
v2
v4
v4
v5
o2
o2
o2
o2
o2
o2
n9.05
v1
v2
v2
v4
v5
v5
o2
o2
o2
o2
o2
o2
n6.1
v1
v2
v3
v3
v3
v4
o16
o2
o2
o2
o2
o2
o2
n7.03
v1
v2
v3
v3
v5
v5
o2
o2
o2
o2
o2
o2
n5.53
v1
v2
v3
v4
v4
v5
o2
o2
o2
o2
o2
o2
n0.01
v1
v2
v4
v4
v4
v4
o2
o2
o2
o2
o2
o2
n5.81
v1
v2
v4
v4
v4
v5
o2
o2
o2
o2
o2
o2
n0.03
v1
v2
v4
v5
v5
v5
o2
o2
o2
o2
o2
o2
n0.99
v1
v2
v5
v5
v5
v5
o2
o2
o2
o2
o2
o2
n4.08
v1
v3
v3
v3
v3
v4
o2
o2
o2
o2
o2
o2
n7.14
v1
v3
v3
v3
v3
v5
o2
o2
o2
o2
o2
o2
n5.94
v1
v3
v3
v3
v4
v5
o2
o2
o2
o2
o2
o2
n1.78
v1
v3
v3
v3
v5
v5
o2
o2
o2
o2
o2
o2
n3.98
v1
v3
v3
v4
v4
v4
o2
o2
o2
o2
o2
o2
n6.28
v1
v3
v3
v4
v5
v5
o2
o2
o2
o2
o2
o2
n5.1
v1
v3
v4
v4
v4
v5
o2
o2
o2
o2
o2
o2
n3.96
v1
v3
v4
v4
v5
v5
o2
o2
o2
o2
o2
o2
n0.19
v1
v3
v4
v5
v5
v5
o2
o2
o2
o2
o2
o2
n1.74
v1
v3
v5
v5
v5
v5
o2
o2
o2
o2
o2
o2
n1.42
v1
v4
v5
v5
v5
v5
o2
o2
o2
o2
o2
o2
n8.13
v2
v2
v2
v2
v2
v2
o2
o2
o2
o2
o2
o2
n6.63
v2
v2
v2
v2
v2
v4
o2
o2
o2
o2
o2
o2
n5.36
v2
v2
v2
v2
v2
v5
o2
o2
o2
o2
o2
o2
n1.18
v2
v2
v2
v2
v3
v3
o2
o2
o2
o2
o2
o2
n8.53
v2
v2
v2
v2
v3
v5
o2
o2
o2
o2
o2
o2
n2.55
v2
v2
v2
v2
v4
v4
o2
o2
o2
o2
o2
o2
n9.5
v2
v2
v2
v2
v4
v5
o16
o2
o2
o2
o2
o2
o2
n8.01
v2
v2
v2
v2
v5
v5
o2
o2
o2
o2
o2
o2
n8.41
v2
v2
v2
v3
v3
v5
o2
o2
o2
o2
o2
o2
n0.69
v2
v2
v2
v3
v4
v5
o2
o2
o2
o2
o2
o2
n0.58
v2
v2
v2
v3
v5
v5
o2
o2
o2
o2
o2
o2
n4.26
v2
v2
v2
v4
v4
v5
o2
o2
o2
o2
o2
o2
n1.63
v2
v2
v3
v3
v3
v3
o2
o2
o2
o2
o2
o2
n1.72
v2
v2
v3
v3
v3
v5
o2
o2
o2
o2
o2
o2
n8.72
v2
v2
v3
v3
v4
v4
o16
o2
o2
o2
o2
o2
o2
n8.46
v2
v2
v3
v4
v4
v5
o16
o2
o2
o2
o2
o2
o2
n0.48
v2
v2
v4
v4
v4
v4
o2
o2
o2
o2
o2
o2
n4.9
v2
v2
v5
v5
v5
v5
o2
o2
o2
o2
o2
o2
n3.79
v2
v3
v3
v3
v3
v4
o2
o2
o2
o2
o2
o2
n9.16
v2
v3
v3
v3
v3
v5
o2
o2
o2
o2
o2
o2
n9.83
v2
v3
v3
v3
v4
v4
o2
o2
o2
o2
o2
o2
n4.95
v2
v3
v3
v3
v4
v5
o2
o2
o2
o2
o2
o2
n7.61
v2
v3
v3
v3
v5
v5
o2
o2
o2
o2
o2
o2
n4.97
v2
v3
v3
v4
v5
v5
o2
o2
o2
o2
o2
o2
n7.44
v2
v3
v4
v4
v4
v4
o2
o2
o2
o2
o2
o2
n5.29
v2
v3
v4
v4
v4
v5
o2
o2
o2
o2
o2
o2
n2.42
v2
v3
v4
v5
v5
v5
o2
o2
o2
o2
o2
o2
n0.82
v2
v4
v4
v4
v4
v4
o2
o2
o2
o2
o2
o2
n0.59
v2
v4
v4
v4
v4
v5
o2
o2
o2
o2
o2
o2
n7.38
v2
v4
v4
v4
v5
v5
o2
o2
o2
o2
o2
o2
n5.62
v2
v4
v4
v5
v5
v5
o2
o2
o2
o2
o2
o2
n0.5
v2
v4
v5
v5
v5
v5
o2
o2
o2
o2
o2
o2
n8.9
v2
v5
v5
v5
v5
v5
o2
o2
o2
o2
o2
o2
n6.43
v3
v3
v3
v3
v4
v5
o2
o2
o2
o2
o2
o2
n0.71
v3
v3
v3
v3
v5
v5
o2
o2
o2
o2
o2
o2
n5.49
v3
v3
v3
v4
v5
v5
o2
o2
o2
o2
o2
o2
n3.46
v3
v3
v3
v5
v5
v5
o2
o2
o2
o2
o2
o2
n3.3
v3
v3
v4
v4
v4
v5
o2
o2
o2
o2
o2
o2
n4.59
v3
v3
v4
v4
v5
v5
o2
o2
o2
o2
o2
o2
n9.96
v3
v3
v5
v5
v5
v5
o2
o2
o2
o2
o2
o2
n2.2
v3
v4
v4
v4
v5
v5
o2
o2
o2
o2
o2
o2
n2.67
v3
v4
v4
v5
v5
v5
o16
o2
o2
o2
o2
o2
o2
n0.97
v3
v4
v5
v5
v5
v5
o2
o2
o2
o2
o2
o2
n2.06
v3
v5
v5
v5
v5
v5
o2
o2
o2
o2
o2
o2
n1.42
v4
v4
v4
v4
v4
v5
k5
8
16
24
32
40
J0 6
0 7.36
1 2.76
2 9.06
3 4.54
4 6.14
5 1
J1 6
0 3.51
1 4.39
2 0.33
3 4.12
4 6.45
5 4.81
J2 6
0 2.16
1 2.29
2 4.47
3 0.37
4 6.66
5 9.69
J3 6
0 0.97
1 8.18
2 6.12
3 7.05
4 2.11
5 -0.88
J4 6
0 3.71
1 6.17
2 3.23
3 9.32
4 6.57
5 -1.38
J5 6
0 6.59
1 1.49
2 6.83
3 8.91
4 2.39
5 8.9
J6 6
0 2.28
1 5.95
2 5.28
3 1.37
4 3.78
5 4.15
J7 6
0 0.19
1 1.98
2 5.52
3 1.6
4 0.76
5 1.08
G0 6
0 8.42
1 8.59
2 -0.14
3 6.48
4 3.26
5 9.75
